NAME : ch150.opt.tour
COMMENT : 6834.73691550449  #   Population: 100   Iteration: 2000   Elitism Ratio: 0.1   Mutation Ratio: 0.1   Crossover Ratio: 0.95
TYPE : TOUR
DIMENSION : 150
TOUR_SECTION
1
87
34
76
73
48
63
3
62
149
125
22
104
4
150
115
71
45
128
68
119
91
106
13
74
123
31
27
129
147
144
49
72
145
136
112
64
44
21
79
59
16
133
15
78
80
14
122
77
131
32
23
38
67
43
109
12
116
101
41
39
57
117
140
17
66
60
130
148
11
61
36
69
127
118
24
53
40
139
47
120
42
9
28
6
37
2
19
99
114
102
137
132
65
85
142
18
75
146
26
56
83
141
58
55
50
135
70
108
86
29
81
110
25
20
51
90
46
138
134
54
92
33
126
52
105
111
121
88
94
10
113
30
84
7
8
89
96
35
93
124
97
100
143
5
107
95
82
103
98
-1
EOF
